(set-info :smt-lib-version 2.6)
(set-logic QF_UFLRA)
(set-info :source |
MathSat group

|)
(set-info :category "random")
(set-info :status sat)
(declare-fun x0 () Real)
(declare-fun x1 () Real)
(declare-fun x2 () Real)
(declare-fun x3 () Real)
(declare-fun x4 () Real)
(declare-fun x5 () Real)
(declare-fun x6 () Real)
(declare-fun x7 () Real)
(declare-fun x8 () Real)
(declare-fun x9 () Real)
(declare-fun x10 () Real)
(declare-fun x11 () Real)
(declare-fun x12 () Real)
(declare-fun x13 () Real)
(declare-fun x14 () Real)
(declare-fun x15 () Real)
(declare-fun x16 () Real)
(declare-fun x17 () Real)
(declare-fun x18 () Real)
(declare-fun x19 () Real)
(declare-fun x20 () Real)
(declare-fun x21 () Real)
(declare-fun x22 () Real)
(declare-fun x23 () Real)
(declare-fun x24 () Real)
(declare-fun x25 () Real)
(declare-fun x26 () Real)
(declare-fun x27 () Real)
(declare-fun x28 () Real)
(declare-fun x29 () Real)
(declare-fun f0_1 (Real) Real)
(declare-fun f0_2 (Real Real) Real)
(declare-fun f0_3 (Real Real Real) Real)
(declare-fun f0_4 (Real Real Real Real) Real)
(declare-fun P0 () Bool)
(declare-fun P1 () Bool)
(declare-fun P2 () Bool)
(declare-fun P3 () Bool)
(declare-fun P4 () Bool)
(declare-fun P5 () Bool)
(declare-fun P6 () Bool)
(declare-fun P7 () Bool)
(declare-fun P8 () Bool)
(declare-fun P9 () Bool)
(declare-fun P10 () Bool)
(declare-fun P11 () Bool)
(declare-fun P12 () Bool)
(declare-fun P13 () Bool)
(declare-fun P14 () Bool)
(declare-fun P15 () Bool)
(declare-fun P16 () Bool)
(declare-fun P17 () Bool)
(declare-fun P18 () Bool)
(declare-fun P19 () Bool)
(declare-fun P20 () Bool)
(declare-fun P21 () Bool)
(declare-fun P22 () Bool)
(declare-fun P23 () Bool)
(declare-fun P24 () Bool)
(declare-fun P25 () Bool)
(declare-fun P26 () Bool)
(declare-fun P27 () Bool)
(declare-fun P28 () Bool)
(declare-fun P29 () Bool)
(assert (let ((?v_94 (< (+ (- (* 37 x11) (* 36 x9)) (* 16 x23)) 10)) (?v_15 (* 3 x29)) (?v_128 (< (- (- (* 19 x25) (* 2 x18)) (* 17 x6)) 11)) (?v_11 (f0_1 x27))) (let ((?v_27 (= x5 ?v_11)) (?v_49 (distinct (f0_2 x12 x26) x9)) (?v_46 (distinct x23 x13)) (?v_18 (distinct x0 x4)) (?v_29 (= ?v_11 (f0_2 x7 x14))) (?v_32 (distinct (f0_2 x17 x28) ?v_11)) (?v_19 (f0_1 x11))) (let ((?v_25 (distinct x1 ?v_19)) (?v_96 (= (f0_1 x21) x28)) (?v_71 (distinct (f0_2 x10 x3) (f0_2 x13 x22))) (?v_48 (= (f0_1 x8) (f0_2 x11 x13))) (?v_142 (= (f0_1 x3) ?v_11)) (?v_84 (= x10 (f0_2 x11 x1))) (?v_144 (= (f0_1 x19) (f0_1 x23))) (?v_36 (distinct x20 (f0_1 x15))) (?v_12 (distinct (f0_1 x1) x12)) (?v_2 (f0_1 x22))) (let ((?v_92 (distinct ?v_2 (f0_2 x9 x23))) (?v_89 (distinct (f0_2 x0 x20) x11)) (?v_52 (distinct ?v_19 x24)) (?v_28 (f0_1 x20))) (let ((?v_50 (= ?v_28 (f0_1 x24))) (?v_67 (distinct x18 x25)) (?v_58 (= x14 (f0_2 x13 x19))) (?v_33 (= (f0_1 x9) x2)) (?v_16 (= (f0_2 x16 x0) x22)) (?v_4 (= (f0_1 x7) x16)) (?v_72 (distinct x19 (f0_1 x28))) (?v_105 (= (f0_2 x0 x22) x17)) (?v_129 (distinct (f0_1 x0) x13)) (?v_6 (distinct x14 ?v_2)) (?v_41 (= (f0_1 x14) ?v_28)) (?v_133 (distinct (f0_2 x6 x20) x6)) (?v_107 (not P19)) (?v_13 (not P17)) (?v_3 (not P10)) (?v_45 (not P1))) (let ((?v_159 (or ?v_45 P10)) (?v_7 (not P25)) (?v_23 (not ?v_6)) (?v_37 (not ?v_4)) (?v_8 (not ?v_18)) (?v_10 (not ?v_72)) (?v_154 (not ?v_36)) (?v_30 (not P20)) (?v_39 (not P12)) (?v_68 (not P13)) (?v_34 (not P23)) (?v_31 (not ?v_12)) (?v_97 (not P4)) (?v_21 (not ?v_33)) (?v_93 (not ?v_29)) (?v_26 (not P5)) (?v_47 (not P7)) (?v_87 (not P29)) (?v_22 (not ?v_129)) (?v_73 (not P8)) (?v_62 (not ?v_94)) (?v_118 (not P9)) (?v_83 (not P22)) (?v_134 (not P16)) (?v_139 (not ?v_25)) (?v_44 (not ?v_27)) (?v_75 (not P21)) (?v_143 (not P24)) (?v_51 (not P6)) (?v_98 (not ?v_58)) (?v_56 (not ?v_41)) (?v_61 (not ?v_32)) (?v_104 (not ?v_133)) (?v_124 (not ?v_142)) (?v_42 (not ?v_16)) (?v_150 (not ?v_46)) (?v_80 (not P14)) (?v_69 (not ?v_50)) (?v_54 (not ?v_52)) (?v_110 (not ?v_49)) (?v_79 (not P18)) (?v_100 (not P0)) (?v_103 (not ?v_67)) (?v_113 (not P26)) (?v_77 (not ?v_71)) (?v_95 (not ?v_48)) (?v_86 (not ?v_144)) (?v_158 (not ?v_84)) (?v_138 (not P15)) (?v_125 (not ?v_92)) (?v_106 (not P27)) (?v_120 (not ?v_96)) (?v_114 (not P3)) (?v_146 (not ?v_105)) (?v_141 (not P2)) (?v_145 (not P28)) (?v_135 (not ?v_128)) (?v_148 (not P11)) (?v_155 (not ?v_89)) (?v_57 (<= (+ (* 33 x3) (* 2 x26)) 17))) (let ((?v_1 (not ?v_57)) (?v_14 (< (- (* 5 x14) (* 4 x25)) 20))) (let ((?v_147 (or (or ?v_8 ?v_14) P7)) (?v_116 (not ?v_14)) (?v_24 (<= (- (- (* 19 x18) (* 13 x2)) 0) 41)) (?v_81 (< (- (* 41 x13) (* 22 x15)) 38))) (let ((?v_132 (not ?v_24)) (?v_123 (not ?v_81))) (let ((?v_151 (or ?v_87 ?v_123)) (?v_117 (<= (+ (* 8 x23) (* 21 x17)) 9))) (let ((?v_131 (not ?v_117)) (?v_0 (= (+ (- 0 (* 20 x6)) (* 42 x1)) (- 39))) (?v_99 (<= (- (+ (* (- 41) x14) (* 28 x27)) (* 23 x24)) (- 33)))) (let ((?v_20 (not ?v_99)) (?v_9 (<= (+ (- (* (- 30) x17) (* 10 x13)) (* 24 x28)) 44)) (?v_17 (<= (- (+ (* (- 19) x3) (* 17 x9)) 0) 2)) (?v_59 (distinct (- (+ (* 17 x18) (* 27 x5)) (* 5 x24)) (- 44))) (?v_5 (<= (- (- (* (- 26) x2) (* 10 x24)) (* 16 x4)) (- 25))) (?v_40 (= (- (- (* (- 22) x10) (* 36 x29)) (* 34 x21)) 34)) (?v_35 (<= (- (+ (* (- 11) x21) (* 22 x19)) (* 15 x5)) (- 38))) (?v_53 (<= (- (+ (* (- 23) x21) (* 41 x17)) (* 17 x10)) (- 19))) (?v_115 (<= (- (- (* (- 9) x3) (* 12 x22)) ?v_15) (- 22))) (?v_160 (or ?v_116 ?v_0)) (?v_88 (< (- (+ (* (- 26) x29) x20) (* 19 x6)) (- 10)))) (let ((?v_55 (not ?v_88)) (?v_64 (< (- (- (* (- 29) x7) (* 42 x10)) 0) 1)) (?v_38 (<= (+ (* 36 x11) ?v_15 (* 14 x16)) (- 34))) (?v_66 (not ?v_17)) (?v_85 (<= (- (+ (* (- 19) x20) (* 30 x27)) (* 8 x3)) 0))) (let ((?v_78 (not ?v_85)) (?v_102 (distinct (+ (* (- 3) x13) (* 5 x9) (* 8 x13)) (- 17))) (?v_91 (< (+ (- (* (- 2) x16) 0) (* 15 x2)) 19)) (?v_112 (< (+ (* (- 20) x17) (* 4 x18) (* 40 x14)) (- 40)))) (let ((?v_43 (not ?v_112)) (?v_156 (or ?v_33 ?v_9)) (?v_119 (not ?v_35)) (?v_63 (<= (- (- (* 7 x3) (* 37 x8)) (* 39 x3)) (- 24)))) (let ((?v_90 (not ?v_63)) (?v_70 (< (- (* 37 x25) (* 22 x12)) (- 11)))) (let ((?v_126 (not ?v_70)) (?v_136 (not ?v_53)) (?v_130 (< (- (- (* 29 x20) (* 6 x25)) (* 40 x17)) (- 37)))) (let ((?v_111 (not ?v_130)) (?v_108 (not ?v_59)) (?v_60 (<= (- (+ (* (- 30) x25) (* 18 x21)) (* 30 x3)) (- 28)))) (let ((?v_76 (not ?v_60)) (?v_101 (not ?v_0)) (?v_65 (not ?v_64)) (?v_82 (<= (+ (* 29 x13) (* 6 x4) (* 39 x5)) (- 11)))) (let ((?v_109 (not ?v_82)) (?v_74 (not ?v_38)) (?v_153 (not ?v_40)) (?v_121 (not ?v_9)) (?v_122 (not ?v_5)) (?v_127 (not ?v_102)) (?v_157 (or ?v_98 ?v_99)) (?v_140 (<= (- (+ (* 11 x15) (* 21 x5)) (* 19 x5)) (- 43)))) (let ((?v_137 (not ?v_140)) (?v_152 (not ?v_91)) (?v_149 (not ?v_115))) (and (and (and (and (and (and (and (and (and (and (and (and (and (and (and (and (and (and (and (and (and (and (and (and (and (and (and (and (and (and (and (and (and (and (and (and (and (and (and (and (and (and (and (and (and (and (and (and (and (and (and (and (and (and (and (and (and (and (and (and (and (and (and (and (and (and (and (and (and (and (and (and (and (and (and (and (and (and (and (and (and (and (and (and (and (and (and (and (and (and (and (and (and (and (and (and (and (and (and (and (and (and (and (and (and (and (and (and (and (and (and (and (and (and (and (and (and (and (and (and (and (and (and (and (and (and (and (and (and (and (and (and (and (and (and (and (and (and (and (and (and (and (and (and (and (and (and (and (and (and (and (and (and (and (and (and (and (and (and (and (and (and (and (and (and (and (and (and (and (and (and (and (and (and (and (and (and (and (and (and (and (and (and (and (and (and (and (and (and (and (and (and (and (and (and (and (and (and (and (and (and (and (and (and (and (and (and (and (and (and (and (and (and (and (and (and (and (and (and (and (and (and (and (and (and (and (and (and (and (and (and (and (and (and (and (and (and (and (and (and (and (and (and (and (and (and (and (and (and (and (and (and (and (and (and (and (and (and (and (and (and (and (and (and (and (and (and (and (and (and (and (and (and (and (and (and (and (and (and (and (and (and (and (and (and (and (and (and (and (and (and (and (and (and (and (and (and (and (and (and (and (and (and (and (and (and (and (and (and (and (and (and (and (and (and (and (and (and (and (and (and (and (and (and (and (and (and (and (and (and (and (and (and (and (and (and (and (and (and (and (and (and (and (and (and (and (and (and (and (and (and (and (and (and (and (and (and (and (and (or (or ?v_0 ?v_107) P13) (or (or ?v_13 ?v_0) ?v_92)) (or (or P8 P13) ?v_20)) (or (or ?v_9 P26) ?v_3)) (or ?v_159 ?v_1)) (or (or ?v_52 ?v_1) ?v_4)) (or (or ?v_17 ?v_7) ?v_59)) (or (or P8 ?v_23) P26)) (or (or ?v_3 P25) ?v_5)) (or (or ?v_46 ?v_37) P2)) (or (or ?v_5 ?v_40) ?v_8)) (or (or ?v_10 ?v_35) ?v_27)) (or (or ?v_6 P2) ?v_154)) (or (or P26 ?v_7) ?v_30)) ?v_147) (or (or ?v_9 ?v_39) ?v_68)) (or (or ?v_34 ?v_31) ?v_97)) (or (or ?v_21 ?v_10) ?v_93)) (or (or ?v_53 ?v_26) ?v_47)) (or (or P26 ?v_12) ?v_87)) (or (or ?v_22 ?v_84) ?v_115)) (or (or ?v_16 ?v_89) ?v_13)) (or ?v_160 P23)) (or (or ?v_55 ?v_73) ?v_64)) (or (or P16 ?v_12) ?v_96)) (or (or ?v_13 ?v_49) ?v_38)) (or (or ?v_71 ?v_62) ?v_16)) (or (or ?v_1 ?v_0) P27)) (or (or ?v_66 ?v_18) ?v_118)) (or (or ?v_25 ?v_3) ?v_83)) (or (or ?v_24 ?v_5) ?v_20)) (or (or ?v_105 ?v_21) ?v_78)) (or (or ?v_48 ?v_1) P4)) (or (or ?v_134 P8) ?v_102)) (or (or ?v_91 P2) ?v_22)) (or (or ?v_23 P16) ?v_24)) (or (or ?v_50 ?v_139) ?v_26)) (or (or ?v_43 ?v_12) ?v_44)) (or (or P1 ?v_75) ?v_143)) (or (or ?v_8 ?v_32) ?v_51)) (or (or P12 ?v_98) ?v_56)) (or (or ?v_29 ?v_81) ?v_30)) (or (or ?v_31 ?v_61) ?v_0)) (or ?v_156 ?v_30)) (or (or ?v_20 ?v_3) ?v_34)) (or (or P4 ?v_30) P29)) (or (or ?v_119 ?v_36) ?v_37)) (or (or P11 ?v_38) ?v_35)) (or (or P25 ?v_39) ?v_13)) (or (or ?v_40 ?v_67) P20)) (or (or ?v_41 ?v_104) ?v_124)) (or (or ?v_42 ?v_42) ?v_43)) (or (or ?v_44 ?v_25) ?v_45)) (or (or ?v_150 ?v_47) ?v_90)) (or (or ?v_126 ?v_48) ?v_5)) (or (or ?v_23 ?v_49) ?v_80)) (or (or ?v_69 ?v_51) ?v_44)) (or (or ?v_54 ?v_38) P6)) (or (or ?v_0 ?v_110) ?v_43)) (or (or ?v_51 ?v_136) P11)) (or (or ?v_10 ?v_54) ?v_55)) (or (or P3 ?v_56) ?v_33)) (or (or ?v_57 ?v_22) ?v_7)) (or (or ?v_58 ?v_111) P19)) (or (or ?v_8 P2) ?v_108)) (or (or ?v_60 P10) P12)) (or (or ?v_79 P13) ?v_76)) (or (or ?v_51 ?v_61) P18)) (or (or ?v_62 ?v_101) P15)) (or (or ?v_63 ?v_132) ?v_29)) (or (or P21 ?v_65) ?v_109)) (or (or P27 ?v_65) ?v_100)) (or (or ?v_66 ?v_103) ?v_113)) (or (or ?v_68 ?v_69) P6)) (or (or ?v_70 ?v_77) P16)) (or (or ?v_65 P7) ?v_25)) (or (or ?v_14 ?v_4) ?v_74)) (or (or ?v_4 ?v_72) ?v_25)) (or (or ?v_73 ?v_95) ?v_74)) (or (or ?v_75 ?v_71) ?v_1)) (or (or ?v_153 ?v_64) ?v_17)) (or (or ?v_21 ?v_76) ?v_1)) (or (or ?v_53 P12) ?v_86)) (or (or ?v_65 ?v_42) ?v_24)) (or (or P15 ?v_77) ?v_39)) (or (or ?v_44 ?v_1) ?v_20)) (or (or ?v_9 P8) P18)) (or (or ?v_78 ?v_46) ?v_79)) (or (or ?v_9 ?v_80) ?v_81)) (or (or ?v_82 ?v_46) ?v_83)) (or (or ?v_158 ?v_36) P28)) (or (or ?v_18 ?v_71) ?v_85)) (or (or ?v_86 ?v_74) ?v_10)) (or ?v_151 P22)) (or (or ?v_51 ?v_88) ?v_13)) (or (or ?v_82 ?v_138) ?v_89)) (or (or ?v_53 ?v_90) ?v_91)) (or (or ?v_125 ?v_55) ?v_93)) (or (or ?v_94 ?v_106) ?v_61)) (or (or ?v_13 ?v_23) ?v_95)) (or (or ?v_29 ?v_22) ?v_120)) (or (or ?v_77 ?v_64) ?v_97)) (or (or ?v_80 ?v_71) ?v_5)) (or (or ?v_23 ?v_81) ?v_34)) (or (or ?v_98 ?v_121) ?v_72)) (or (or ?v_10 ?v_46) ?v_27)) (or (or ?v_114 ?v_99) ?v_68)) (or (or ?v_64 ?v_80) ?v_30)) (or (or ?v_34 P16) P6)) (or (or ?v_100 P25) P20)) (or (or ?v_68 ?v_96) ?v_9)) (or (or ?v_40 ?v_30) ?v_3)) (or (or ?v_21 ?v_8) ?v_53)) (or (or ?v_38 ?v_122) ?v_57)) (or (or ?v_51 P14) ?v_84)) (or (or ?v_66 ?v_55) P0)) (or (or ?v_62 ?v_55) ?v_82)) (or (or P9 ?v_62) ?v_63)) (or (or P12 ?v_38) ?v_101)) (or (or ?v_42 P25) P7)) (or (or ?v_92 ?v_35) P26)) (or (or ?v_7 ?v_85) ?v_38)) (or (or ?v_127 ?v_47) ?v_55)) (or (or ?v_90 ?v_93) ?v_64)) (or (or ?v_103 ?v_104) ?v_146)) (or (or ?v_13 ?v_6) ?v_73)) (or (or ?v_90 ?v_43) ?v_106)) (or (or ?v_42 P28) ?v_58)) (or (or ?v_42 ?v_107) ?v_108)) (or (or ?v_109 ?v_52) ?v_7)) (or (or ?v_72 ?v_110) ?v_111)) (or (or ?v_20 ?v_112) ?v_7)) (or (or ?v_13 P13) P20)) (or (or ?v_141 P10) ?v_79)) (or (or ?v_32 ?v_113) ?v_48)) (or (or ?v_46 ?v_114) ?v_63)) (or (or P0 ?v_48) ?v_82)) (or (or ?v_115 ?v_95) ?v_34)) (or (or ?v_54 ?v_116) ?v_82)) (or (or ?v_69 ?v_23) ?v_117)) (or (or P17 P29) P22)) (or (or ?v_117 ?v_48) P22)) (or (or ?v_27 ?v_118) P0)) (or (or ?v_81 ?v_119) ?v_117)) (or (or ?v_39 ?v_1) ?v_12)) (or (or ?v_36 ?v_92) ?v_8)) (or (or ?v_90 ?v_120) P15)) (or (or P25 ?v_60) ?v_111)) (or (or ?v_37 P14) ?v_85)) (or (or ?v_34 ?v_89) ?v_107)) (or (or ?v_81 ?v_66) ?v_64)) (or ?v_157 P0)) (or (or ?v_14 ?v_17) ?v_78)) (or (or ?v_1 ?v_145) ?v_111)) (or (or ?v_24 ?v_78) ?v_102)) (or (or ?v_53 ?v_121) ?v_35)) (or (or ?v_21 P20) ?v_122)) (or (or ?v_131 ?v_39) P15)) (or (or ?v_21 ?v_123) ?v_56)) (or (or ?v_124 ?v_74) ?v_42)) (or (or ?v_128 ?v_125) ?v_126)) (or (or ?v_33 ?v_127) P6)) (or (or ?v_128 P28) ?v_20)) (or (or ?v_125 P1) P29)) (or (or ?v_23 ?v_127) ?v_129)) (or (or P8 P23) ?v_55)) (or (or ?v_116 ?v_63) ?v_130)) (or (or ?v_85 ?v_101) ?v_102)) (or (or ?v_85 P23) ?v_3)) (or (or ?v_95 ?v_131) ?v_62)) (or (or P10 ?v_132) ?v_6)) (or (or ?v_70 ?v_102) ?v_43)) (or (or ?v_17 ?v_29) P24)) (or (or P22 ?v_135) ?v_106)) (or (or ?v_115 ?v_104) P25)) (or (or P11 ?v_93) ?v_38)) (or (or ?v_133 ?v_134) P26)) (or (or ?v_137 ?v_10) P26)) (or (or ?v_135 ?v_66) P24)) (or (or ?v_16 ?v_21) ?v_110)) (or (or ?v_136 ?v_62) ?v_83)) (or (or ?v_136 P27) ?v_17)) (or (or ?v_137 ?v_40) ?v_132)) (or (or ?v_1 ?v_24) ?v_30)) (or (or ?v_138 P9) ?v_110)) (or (or ?v_82 ?v_95) ?v_68)) (or (or ?v_71 ?v_26) ?v_93)) (or (or ?v_148 ?v_139) ?v_0)) (or (or P21 ?v_4) ?v_48)) (or (or ?v_131 ?v_96) ?v_112)) (or (or P12 ?v_140) P17)) (or (or P0 ?v_141) ?v_69)) (or (or ?v_56 ?v_142) ?v_57)) (or (or ?v_43 ?v_143) ?v_144)) (or (or ?v_121 ?v_13) ?v_86)) (or (or ?v_21 ?v_14) ?v_108)) (or (or ?v_145 P19) ?v_57)) (or (or ?v_90 ?v_122) ?v_30)) (or (or P9 ?v_129) ?v_68)) (or (or ?v_140 ?v_112) ?v_136)) (or (or P13 ?v_64) ?v_138)) (or (or ?v_120 ?v_115) P8)) (or (or ?v_74 P12) ?v_137)) (or (or ?v_112 ?v_46) P28)) (or (or ?v_129 P24) ?v_65)) (or (or ?v_98 ?v_116) P11)) (or (or ?v_35 ?v_59) ?v_6)) (or (or ?v_45 P9) ?v_90)) (or (or ?v_54 ?v_57) ?v_152)) (or (or ?v_92 ?v_80) ?v_64)) (or (or ?v_50 ?v_136) ?v_27)) (or (or ?v_94 ?v_9) ?v_37)) (or (or ?v_146 ?v_0) ?v_51)) (or (or ?v_50 P27) P15)) (or (or ?v_31 ?v_74) ?v_104)) (or (or ?v_115 ?v_130) ?v_36)) (or (or ?v_20 ?v_94) ?v_149)) (or (or ?v_125 ?v_126) ?v_4)) (or (or ?v_146 ?v_48) ?v_99)) (or (or ?v_108 ?v_23) ?v_112)) (or (or ?v_63 ?v_85) ?v_121)) (or (or ?v_6 ?v_99) ?v_10)) (or (or ?v_6 P18) ?v_69)) (or (or ?v_112 ?v_61) ?v_86)) ?v_147) (or (or ?v_148 P29) ?v_8)) (or (or P15 P17) ?v_148)) (or (or ?v_137 ?v_66) ?v_76)) (or (or ?v_43 ?v_129) ?v_114)) (or (or ?v_146 P16) ?v_3)) (or (or ?v_43 ?v_82) P23)) (or (or ?v_46 ?v_93) ?v_96)) (or (or ?v_85 P26) ?v_103)) (or (or P23 P11) ?v_107)) (or (or ?v_141 ?v_86) ?v_65)) (or (or P24 ?v_149) ?v_127)) (or (or ?v_32 P24) P10)) (or (or ?v_102 ?v_139) ?v_104)) (or (or ?v_150 ?v_107) ?v_120)) (or (or ?v_85 ?v_40) P29)) (or (or ?v_66 ?v_143) ?v_39)) (or (or ?v_88 ?v_38) P2)) (or ?v_151 ?v_127)) (or (or P21 ?v_91) ?v_124)) (or (or P5 ?v_0) ?v_18)) (or (or ?v_99 ?v_106) ?v_54)) (or (or ?v_101 ?v_31) ?v_7)) (or (or ?v_8 ?v_56) ?v_77)) (or (or ?v_133 ?v_33) P8)) (or (or ?v_94 P23) ?v_69)) (or (or P19 ?v_123) ?v_130)) (or (or ?v_55 ?v_10) ?v_80)) (or (or ?v_110 ?v_80) ?v_39)) (or (or ?v_148 ?v_86) ?v_13)) (or (or ?v_87 P23) ?v_8)) (or (or P18 ?v_4) ?v_57)) (or (or ?v_74 ?v_140) P3)) (or (or P25 ?v_66) ?v_155)) (or (or P6 ?v_45) ?v_152)) (or (or P26 ?v_14) ?v_114)) (or (or P21 ?v_153) P18)) (or (or ?v_46 ?v_39) P23)) (or (or ?v_53 ?v_98) ?v_56)) (or (or P22 ?v_152) ?v_95)) (or (or ?v_113 P28) P11)) (or (or ?v_71 ?v_68) ?v_78)) (or (or ?v_56 ?v_115) P0)) (or (or ?v_133 ?v_4) ?v_57)) (or (or ?v_62 ?v_83) P23)) (or (or ?v_128 ?v_92) ?v_144)) (or (or ?v_111 ?v_130) ?v_17)) (or (or P26 ?v_128) P7)) (or (or ?v_112 ?v_20) P4)) (or (or ?v_99 ?v_31) ?v_102)) (or (or ?v_43 ?v_60) ?v_50)) (or (or ?v_132 ?v_108) ?v_115)) (or (or ?v_18 ?v_41) ?v_148)) (or (or ?v_121 ?v_6) ?v_13)) (or (or ?v_136 ?v_154) ?v_67)) (or (or ?v_87 ?v_114) ?v_117)) (or (or ?v_140 ?v_29) ?v_113)) (or (or ?v_4 ?v_132) ?v_56)) (or (or P1 ?v_26) ?v_133)) (or (or ?v_33 ?v_94) ?v_155)) (or (or ?v_23 ?v_58) ?v_70)) (or (or ?v_127 ?v_139) ?v_66)) (or (or ?v_13 ?v_92) ?v_132)) (or (or ?v_93 ?v_98) ?v_39)) (or (or ?v_62 ?v_38) ?v_70)) (or (or ?v_65 P29) ?v_129)) (or (or ?v_102 P16) ?v_47)) (or (or ?v_24 ?v_88) ?v_105)) (or (or P8 ?v_32) ?v_36)) (or (or P16 ?v_44) ?v_3)) (or (or ?v_101 ?v_72) ?v_43)) (or (or ?v_53 ?v_33) ?v_103)) (or (or ?v_117 ?v_103) ?v_21)) (or (or ?v_155 ?v_92) ?v_85)) (or ?v_156 ?v_130)) (or (or ?v_69 ?v_60) ?v_92)) (or (or ?v_136 ?v_59) P7)) (or (or ?v_37 ?v_149) ?v_82)) (or (or ?v_115 P4) ?v_117)) (or (or ?v_138 ?v_75) P26)) (or (or ?v_117 ?v_72) ?v_136)) (or (or ?v_76 ?v_83) ?v_116)) (or (or ?v_12 ?v_14) P17)) (or (or ?v_12 P18) ?v_1)) (or (or ?v_105 ?v_47) ?v_13)) (or (or P18 ?v_69) ?v_43)) (or (or ?v_130 ?v_31) ?v_46)) (or (or ?v_148 ?v_71) ?v_37)) (or (or ?v_99 ?v_95) ?v_10)) (or (or ?v_81 ?v_41) P28)) (or (or P27 ?v_132) ?v_155)) (or (or ?v_22 ?v_72) ?v_51)) (or (or ?v_80 ?v_96) ?v_65)) (or (or ?v_37 ?v_86) ?v_43)) (or (or ?v_109 ?v_139) P18)) (or (or ?v_131 ?v_56) ?v_47)) (or (or ?v_113 ?v_23) ?v_45)) (or (or P0 ?v_45) ?v_92)) (or (or ?v_67 ?v_123) ?v_133)) (or ?v_157 P22)) (or (or ?v_74 ?v_17) P17)) (or (or ?v_72 P18) ?v_33)) (or (or ?v_88 ?v_14) ?v_38)) (or (or ?v_29 ?v_83) ?v_132)) (or (or ?v_53 ?v_117) ?v_55)) (or (or ?v_21 P8) ?v_45)) (or (or ?v_149 ?v_65) P26)) (or (or ?v_57 ?v_142) ?v_31)) (or (or ?v_14 P19) P12)) (or (or ?v_81 ?v_117) ?v_139)) (or (or ?v_32 ?v_81) ?v_26)) (or (or ?v_94 ?v_86) ?v_118)) (or (or ?v_8 ?v_96) ?v_82)) (or (or ?v_158 ?v_29) ?v_34)) (or (or ?v_74 ?v_123) P4)) (or (or ?v_148 P11) ?v_6)) (or (or ?v_109 P18) P25)) (or (or P0 ?v_88) ?v_134)) (or (or ?v_41 ?v_16) ?v_146)) (or ?v_159 P3)) (or (or P26 ?v_143) ?v_142)) (or (or ?v_135 ?v_111) ?v_131)) (or (or ?v_95 ?v_43) ?v_133)) (or ?v_160 ?v_137)) (or (or P1 ?v_102) ?v_153)) (or (or ?v_103 ?v_101) ?v_74)) (or (or P18 ?v_143) ?v_34)) (or (or ?v_82 ?v_17) ?v_56)) (or (or ?v_47 ?v_136) ?v_89)) (or (or ?v_39 ?v_111) P19)) (or (or ?v_20 ?v_142) ?v_153)) (or (or P16 ?v_92) ?v_4)) (or (or ?v_57 ?v_61) P7)) (or (or ?v_53 ?v_22) ?v_115)) (or (or P26 P17) P11)) (or (or ?v_10 ?v_24) P27))))))))))))))))))))))))
(check-sat)
(exit)
